benchmark_instances/dzn_benchmark_instances/benchmark_instance_8-5.dzn
% Input: sequence of points
seq_points = [|5,1
              |6,1
              |5,2
              |7,2
              |7,3
              |2,4
              |7,4
              |1,5
              |2,5
              |5,5
              |7,5
              |1,6
              |2,6
              |1,7
              |6,7
              |7,7
              |6,0
              |8,1
              |2,8
              |5,8
              |6,8
              |7,8
              |8,8
              |0,3
              |0,7
              |1,8
              |0,0
              |0,1
             |];

num_points = 28;
