benchmark_instances/lp_benchmark_instances/benchmark_instance_8-5.lp
% Input: sequence of points
point(5,1).
point(6,1).
point(5,2).
point(7,2).
point(7,3).
point(2,4).
point(7,4).
point(1,5).
point(2,5).
point(5,5).
point(7,5).
point(1,6).
point(2,6).
point(1,7).
point(6,7).
point(7,7).
point(6,0).
point(8,1).
point(2,8).
point(5,8).
point(6,8).
point(7,8).
point(8,8).
point(0,3).
point(0,7).
point(1,8).
point(0,0).
point(0,1).
